74
7
0 8 9 11 12 13 16 20 22 23 24 25 26 27 28 29 32 34 35 36 37 38 40 41 42 43 45 47 53 54 56 57 58 60 65 66 67 68 69 72 73
1 8 9 11 12 13 14 17 19 21 22 23 26 27 28 29 31 34 40 41 42 45 49 51 52 53 54 56 57 58 60 61 63 67 68 72
2 8 9 10 11 13 14 15 19 21 22 23 24 25 26 28 29 30 31 32 33 36 37 40 41 42 49 50 51 53 54 55 56 60 61 62 63 69 72 73
3 7 8 11 13 14 15 18 19 23 24 25 29 31 32 34 37 40 42 44 45 46 48 50 52 53 54 55 57 58 60 61 66 71 73
4 7 9 11 12 14 15 17 22 24 26 27 28 38 39 43 44 63 64 67 69
5 18 19 21 27 29 37 38 45 48 49 59 68
6 12 27 29 31 32 34 40 41 43 45 51 56 58 70
